c nIsolatedPIs 0
c maxPI 32
p cnf 313 844
c gate 33 3 19 0
3 -33 0
19 -33 0
-3 -19 33 0
c gate 34 -3 19 0
-3 -34 0
19 -34 0
3 -19 34 0
c gate 35 3 -19 0
3 -35 0
-19 -35 0
-3 19 35 0
c gate 36 -34 -35 0
-34 -36 0
-35 -36 0
34 35 36 0
c gate 37 -2 18 0
-2 -37 0
18 -37 0
2 -18 37 0
c gate 38 2 -18 0
2 -38 0
-18 -38 0
-2 18 38 0
c gate 39 -37 -38 0
-37 -39 0
-38 -39 0
37 38 39 0
c gate 40 1 17 0
1 -40 0
17 -40 0
-1 -17 40 0
c gate 41 -39 40 0
-39 -41 0
40 -41 0
39 -40 41 0
c gate 42 2 18 0
2 -42 0
18 -42 0
-2 -18 42 0
c gate 43 -41 -42 0
-41 -43 0
-42 -43 0
41 42 43 0
c gate 44 -36 -43 0
-36 -44 0
-43 -44 0
36 43 44 0
c gate 45 -33 -44 0
-33 -45 0
-44 -45 0
33 44 45 0
c gate 46 4 -20 0
4 -46 0
-20 -46 0
-4 20 46 0
c gate 47 -4 20 0
-4 -47 0
20 -47 0
4 -20 47 0
c gate 48 -46 -47 0
-46 -48 0
-47 -48 0
46 47 48 0
c gate 49 45 -48 0
45 -49 0
-48 -49 0
-45 48 49 0
c gate 50 -45 48 0
-45 -50 0
48 -50 0
45 -48 50 0
c gate 51 -49 -50 0
-49 -51 0
-50 -51 0
49 50 51 0
c gate 52 18 -43 0
18 -52 0
-43 -52 0
-18 43 52 0
c gate 53 -33 -52 0
-33 -53 0
-52 -53 0
33 52 53 0
c gate 54 -48 -53 0
-48 -54 0
-53 -54 0
48 53 54 0
c gate 55 48 53 0
48 -55 0
53 -55 0
-48 -53 55 0
c gate 56 -54 -55 0
-54 -56 0
-55 -56 0
54 55 56 0
c gate 57 51 56 0
51 -57 0
56 -57 0
-51 -56 57 0
c gate 58 -51 -56 0
-51 -58 0
-56 -58 0
51 56 58 0
c gate 59 -57 -58 0
-57 -59 0
-58 -59 0
57 58 59 0
c gate 60 -1 17 0
-1 -60 0
17 -60 0
1 -17 60 0
c gate 61 -37 -60 0
-37 -61 0
-60 -61 0
37 60 61 0
c gate 62 -35 -38 0
-35 -62 0
-38 -62 0
35 38 62 0
c gate 63 -61 62 0
-61 -63 0
62 -63 0
61 -62 63 0
c gate 64 -34 -63 0
-34 -64 0
-63 -64 0
34 63 64 0
c gate 65 46 -64 0
46 -65 0
-64 -65 0
-46 64 65 0
c gate 66 7 -23 0
7 -66 0
-23 -66 0
-7 23 66 0
c gate 67 -7 23 0
-7 -67 0
23 -67 0
7 -23 67 0
c gate 68 -66 -67 0
-66 -68 0
-67 -68 0
66 67 68 0
c gate 69 6 -22 0
6 -69 0
-22 -69 0
-6 22 69 0
c gate 70 -6 22 0
-6 -70 0
22 -70 0
6 -22 70 0
c gate 71 -69 -70 0
-69 -71 0
-70 -71 0
69 70 71 0
c gate 72 -5 21 0
-5 -72 0
21 -72 0
5 -21 72 0
c gate 73 5 -21 0
5 -73 0
-21 -73 0
-5 21 73 0
c gate 74 -72 -73 0
-72 -74 0
-73 -74 0
72 73 74 0
c gate 75 71 74 0
71 -75 0
74 -75 0
-71 -74 75 0
c gate 76 68 75 0
68 -76 0
75 -76 0
-68 -75 76 0
c gate 77 65 76 0
65 -77 0
76 -77 0
-65 -76 77 0
c gate 78 -14 -30 0
-14 -78 0
-30 -78 0
14 30 78 0
c gate 79 14 30 0
14 -79 0
30 -79 0
-14 -30 79 0
c gate 80 13 29 0
13 -80 0
29 -80 0
-13 -29 80 0
c gate 81 -79 -80 0
-79 -81 0
-80 -81 0
79 80 81 0
c gate 82 12 28 0
12 -82 0
28 -82 0
-12 -28 82 0
c gate 83 -12 -28 0
-12 -83 0
-28 -83 0
12 28 83 0
c gate 84 -82 -83 0
-82 -84 0
-83 -84 0
82 83 84 0
c gate 85 -11 27 0
-11 -85 0
27 -85 0
11 -27 85 0
c gate 86 11 -27 0
11 -86 0
-27 -86 0
-11 27 86 0
c gate 87 -85 -86 0
-85 -87 0
-86 -87 0
85 86 87 0
c gate 88 -10 26 0
-10 -88 0
26 -88 0
10 -26 88 0
c gate 89 10 -26 0
10 -89 0
-26 -89 0
-10 26 89 0
c gate 90 -88 -89 0
-88 -90 0
-89 -90 0
88 89 90 0
c gate 91 -9 -25 0
-9 -91 0
-25 -91 0
9 25 91 0
c gate 92 9 25 0
9 -92 0
25 -92 0
-9 -25 92 0
c gate 93 -91 -92 0
-91 -93 0
-92 -93 0
91 92 93 0
c gate 94 8 24 0
8 -94 0
24 -94 0
-8 -24 94 0
c gate 95 8 -24 0
8 -95 0
-24 -95 0
-8 24 95 0
c gate 96 -8 24 0
-8 -96 0
24 -96 0
8 -24 96 0
c gate 97 -95 -96 0
-95 -97 0
-96 -97 0
95 96 97 0
c gate 98 7 23 0
7 -98 0
23 -98 0
-7 -23 98 0
c gate 99 6 22 0
6 -99 0
22 -99 0
-6 -22 99 0
c gate 100 5 21 0
5 -100 0
21 -100 0
-5 -21 100 0
c gate 101 -4 -20 0
-4 -101 0
-20 -101 0
4 20 101 0
c gate 102 -49 -101 0
-49 -102 0
-101 -102 0
49 101 102 0
c gate 103 -74 102 0
-74 -103 0
102 -103 0
74 -102 103 0
c gate 104 -100 -103 0
-100 -104 0
-103 -104 0
100 103 104 0
c gate 105 -71 -104 0
-71 -105 0
-104 -105 0
71 104 105 0
c gate 106 -99 -105 0
-99 -106 0
-105 -106 0
99 105 106 0
c gate 107 -68 -106 0
-68 -107 0
-106 -107 0
68 106 107 0
c gate 108 -98 -107 0
-98 -108 0
-107 -108 0
98 107 108 0
c gate 109 -97 -108 0
-97 -109 0
-108 -109 0
97 108 109 0
c gate 110 -94 -109 0
-94 -110 0
-109 -110 0
94 109 110 0
c gate 111 93 110 0
93 -111 0
110 -111 0
-93 -110 111 0
c gate 112 -91 -111 0
-91 -112 0
-111 -112 0
91 111 112 0
c gate 113 -90 -112 0
-90 -113 0
-112 -113 0
90 112 113 0
c gate 114 10 112 0
10 -114 0
112 -114 0
-10 -112 114 0
c gate 115 -26 -114 0
-26 -115 0
-114 -115 0
26 114 115 0
c gate 116 -113 -115 0
-113 -116 0
-115 -116 0
113 115 116 0
c gate 117 -87 -116 0
-87 -117 0
-116 -117 0
87 116 117 0
c gate 118 11 116 0
11 -118 0
116 -118 0
-11 -116 118 0
c gate 119 -27 -118 0
-27 -119 0
-118 -119 0
27 118 119 0
c gate 120 -117 -119 0
-117 -120 0
-119 -120 0
117 119 120 0
c gate 121 84 -120 0
84 -121 0
-120 -121 0
-84 120 121 0
c gate 122 -13 -29 0
-13 -122 0
-29 -122 0
13 29 122 0
c gate 123 -83 -122 0
-83 -123 0
-122 -123 0
83 122 123 0
c gate 124 -121 123 0
-121 -124 0
123 -124 0
121 -123 124 0
c gate 125 81 -124 0
81 -125 0
-124 -125 0
-81 124 125 0
c gate 126 -78 -125 0
-78 -126 0
-125 -126 0
78 125 126 0
c gate 127 16 -32 0
16 -127 0
-32 -127 0
-16 32 127 0
c gate 128 -16 32 0
-16 -128 0
32 -128 0
16 -32 128 0
c gate 129 -127 -128 0
-127 -129 0
-128 -129 0
127 128 129 0
c gate 130 15 31 0
15 -130 0
31 -130 0
-15 -31 130 0
c gate 131 -15 -31 0
-15 -131 0
-31 -131 0
15 31 131 0
c gate 132 -130 -131 0
-130 -132 0
-131 -132 0
130 131 132 0
c gate 133 126 132 0
126 -133 0
132 -133 0
-126 -132 133 0
c gate 134 -130 -133 0
-130 -134 0
-133 -134 0
130 133 134 0
c gate 135 -129 134 0
-129 -135 0
134 -135 0
129 -134 135 0
c gate 136 129 -134 0
129 -136 0
-134 -136 0
-129 134 136 0
c gate 137 -135 -136 0
-135 -137 0
-136 -137 0
135 136 137 0
c gate 138 -7 -23 0
-7 -138 0
-23 -138 0
7 23 138 0
c gate 139 -6 -22 0
-6 -139 0
-22 -139 0
6 22 139 0
c gate 140 4 20 0
4 -140 0
20 -140 0
-4 -20 140 0
c gate 141 -54 -140 0
-54 -141 0
-140 -141 0
54 140 141 0
c gate 142 -100 141 0
-100 -142 0
141 -142 0
100 -141 142 0
c gate 143 -139 -142 0
-139 -143 0
-142 -143 0
139 142 143 0
c gate 144 -138 143 0
-138 -144 0
143 -144 0
138 -143 144 0
c gate 145 -94 -144 0
-94 -145 0
-144 -145 0
94 144 145 0
c gate 146 93 -145 0
93 -146 0
-145 -146 0
-93 145 146 0
c gate 147 -92 -146 0
-92 -147 0
-146 -147 0
92 146 147 0
c gate 148 -90 147 0
-90 -148 0
147 -148 0
90 -147 148 0
c gate 149 10 -147 0
10 -149 0
-147 -149 0
-10 147 149 0
c gate 150 -26 -149 0
-26 -150 0
-149 -150 0
26 149 150 0
c gate 151 -148 -150 0
-148 -151 0
-150 -151 0
148 150 151 0
c gate 152 -87 -151 0
-87 -152 0
-151 -152 0
87 151 152 0
c gate 153 11 151 0
11 -153 0
151 -153 0
-11 -151 153 0
c gate 154 -27 -153 0
-27 -154 0
-153 -154 0
27 153 154 0
c gate 155 -152 -154 0
-152 -155 0
-154 -155 0
152 154 155 0
c gate 156 -82 -155 0
-82 -156 0
-155 -156 0
82 155 156 0
c gate 157 -83 -156 0
-83 -157 0
-156 -157 0
83 156 157 0
c gate 158 -122 157 0
-122 -158 0
157 -158 0
122 -157 158 0
c gate 159 81 -158 0
81 -159 0
-158 -159 0
-81 158 159 0
c gate 160 -78 -131 0
-78 -160 0
-131 -160 0
78 131 160 0
c gate 161 -159 160 0
-159 -161 0
160 -161 0
159 -160 161 0
c gate 162 -130 -161 0
-130 -162 0
-161 -162 0
130 161 162 0
c gate 163 129 -162 0
129 -163 0
-162 -163 0
-129 162 163 0
c gate 164 -129 162 0
-129 -164 0
162 -164 0
129 -162 164 0
c gate 165 -163 -164 0
-163 -165 0
-164 -165 0
163 164 165 0
c gate 166 137 -165 0
137 -166 0
-165 -166 0
-137 165 166 0
c gate 167 126 166 0
126 -167 0
166 -167 0
-126 -166 167 0
c gate 168 -93 145 0
-93 -168 0
145 -168 0
93 -145 168 0
c gate 169 -146 -168 0
-146 -169 0
-168 -169 0
146 168 169 0
c gate 170 -93 -110 0
-93 -170 0
-110 -170 0
93 110 170 0
c gate 171 -111 -170 0
-111 -171 0
-170 -171 0
111 170 171 0
c gate 172 169 171 0
169 -172 0
171 -172 0
-169 -171 172 0
c gate 173 -169 -171 0
-169 -173 0
-171 -173 0
169 171 173 0
c gate 174 -172 -173 0
-172 -174 0
-173 -174 0
172 173 174 0
c gate 175 97 108 0
97 -175 0
108 -175 0
-97 -108 175 0
c gate 176 -109 -175 0
-109 -176 0
-175 -176 0
109 175 176 0
c gate 177 97 144 0
97 -177 0
144 -177 0
-97 -144 177 0
c gate 178 -97 -144 0
-97 -178 0
-144 -178 0
97 144 178 0
c gate 179 -177 -178 0
-177 -179 0
-178 -179 0
177 178 179 0
c gate 180 -176 -179 0
-176 -180 0
-179 -180 0
176 179 180 0
c gate 181 176 179 0
176 -181 0
179 -181 0
-176 -179 181 0
c gate 182 68 106 0
68 -182 0
106 -182 0
-68 -106 182 0
c gate 183 -107 -182 0
-107 -183 0
-182 -183 0
107 182 183 0
c gate 184 68 143 0
68 -184 0
143 -184 0
-68 -143 184 0
c gate 185 -68 -143 0
-68 -185 0
-143 -185 0
68 143 185 0
c gate 186 -184 -185 0
-184 -186 0
-185 -186 0
184 185 186 0
c gate 187 -183 -186 0
-183 -187 0
-186 -187 0
183 186 187 0
c gate 188 183 186 0
183 -188 0
186 -188 0
-183 -186 188 0
c gate 189 71 104 0
71 -189 0
104 -189 0
-71 -104 189 0
c gate 190 -105 -189 0
-105 -190 0
-189 -190 0
105 189 190 0
c gate 191 71 142 0
71 -191 0
142 -191 0
-71 -142 191 0
c gate 192 -71 -142 0
-71 -192 0
-142 -192 0
71 142 192 0
c gate 193 -191 -192 0
-191 -193 0
-192 -193 0
191 192 193 0
c gate 194 -190 193 0
-190 -194 0
193 -194 0
190 -193 194 0
c gate 195 74 -102 0
74 -195 0
-102 -195 0
-74 102 195 0
c gate 196 -103 -195 0
-103 -196 0
-195 -196 0
103 195 196 0
c gate 197 74 -141 0
74 -197 0
-141 -197 0
-74 141 197 0
c gate 198 -74 141 0
-74 -198 0
141 -198 0
74 -141 198 0
c gate 199 -197 -198 0
-197 -199 0
-198 -199 0
197 198 199 0
c gate 200 196 199 0
196 -200 0
199 -200 0
-196 -199 200 0
c gate 201 190 -193 0
190 -201 0
-193 -201 0
-190 193 201 0
c gate 202 -194 -201 0
-194 -202 0
-201 -202 0
194 201 202 0
c gate 203 -200 202 0
-200 -203 0
202 -203 0
200 -202 203 0
c gate 204 -194 -203 0
-194 -204 0
-203 -204 0
194 203 204 0
c gate 205 -188 -204 0
-188 -205 0
-204 -205 0
188 204 205 0
c gate 206 18 -36 0
18 -206 0
-36 -206 0
-18 36 206 0
c gate 207 -43 -206 0
-43 -207 0
-206 -207 0
43 206 207 0
c gate 208 -196 -199 0
-196 -208 0
-199 -208 0
196 199 208 0
c gate 209 -2 44 0
-2 -209 0
44 -209 0
2 -44 209 0
c gate 210 -57 -209 0
-57 -210 0
-209 -210 0
57 209 210 0
c gate 211 -200 -210 0
-200 -211 0
-210 -211 0
200 210 211 0
c gate 212 -208 -211 0
-208 -212 0
-211 -212 0
208 211 212 0
c gate 213 203 212 0
203 -213 0
212 -213 0
-203 -212 213 0
c gate 214 207 213 0
207 -214 0
213 -214 0
-207 -213 214 0
c gate 215 205 -214 0
205 -215 0
-214 -215 0
-205 214 215 0
c gate 216 -187 -215 0
-187 -216 0
-215 -216 0
187 215 216 0
c gate 217 -181 -216 0
-181 -217 0
-216 -217 0
181 216 217 0
c gate 218 -180 -217 0
-180 -218 0
-217 -218 0
180 217 218 0
c gate 219 174 -218 0
174 -219 0
-218 -219 0
-174 218 219 0
c gate 220 -84 155 0
-84 -220 0
155 -220 0
84 -155 220 0
c gate 221 -83 156 0
-83 -221 0
156 -221 0
83 -156 221 0
c gate 222 -220 -221 0
-220 -222 0
-221 -222 0
220 221 222 0
c gate 223 -84 120 0
-84 -223 0
120 -223 0
84 -120 223 0
c gate 224 -121 -223 0
-121 -224 0
-223 -224 0
121 223 224 0
c gate 225 222 -224 0
222 -225 0
-224 -225 0
-222 224 225 0
c gate 226 -222 224 0
-222 -226 0
224 -226 0
222 -224 226 0
c gate 227 87 151 0
87 -227 0
151 -227 0
-87 -151 227 0
c gate 228 -152 -227 0
-152 -228 0
-227 -228 0
152 227 228 0
c gate 229 87 116 0
87 -229 0
116 -229 0
-87 -116 229 0
c gate 230 -117 -229 0
-117 -230 0
-229 -230 0
117 229 230 0
c gate 231 228 -230 0
228 -231 0
-230 -231 0
-228 230 231 0
c gate 232 -228 230 0
-228 -232 0
230 -232 0
228 -230 232 0
c gate 233 90 112 0
90 -233 0
112 -233 0
-90 -112 233 0
c gate 234 -113 -233 0
-113 -234 0
-233 -234 0
113 233 234 0
c gate 235 90 -147 0
90 -235 0
-147 -235 0
-90 147 235 0
c gate 236 -148 -235 0
-148 -236 0
-235 -236 0
148 235 236 0
c gate 237 -234 236 0
-234 -237 0
236 -237 0
234 -236 237 0
c gate 238 234 -236 0
234 -238 0
-236 -238 0
-234 236 238 0
c gate 239 173 -238 0
173 -239 0
-238 -239 0
-173 238 239 0
c gate 240 -237 -239 0
-237 -240 0
-239 -240 0
237 239 240 0
c gate 241 -232 -240 0
-232 -241 0
-240 -241 0
232 240 241 0
c gate 242 -231 -241 0
-231 -242 0
-241 -242 0
231 241 242 0
c gate 243 -226 -242 0
-226 -243 0
-242 -243 0
226 242 243 0
c gate 244 -225 -243 0
-225 -244 0
-243 -244 0
225 243 244 0
c gate 245 -174 244 0
-174 -245 0
244 -245 0
174 -244 245 0
c gate 246 120 221 0
120 -246 0
221 -246 0
-120 -221 246 0
c gate 247 121 155 0
121 -247 0
155 -247 0
-121 -155 247 0
c gate 248 -246 -247 0
-246 -248 0
-247 -248 0
246 247 248 0
c gate 249 -245 248 0
-245 -249 0
248 -249 0
245 -248 249 0
c gate 250 -137 165 0
-137 -250 0
165 -250 0
137 -165 250 0
c gate 251 -80 -122 0
-80 -251 0
-122 -251 0
80 122 251 0
c gate 252 246 -251 0
246 -252 0
-251 -252 0
-246 251 252 0
c gate 253 -78 -79 0
-78 -253 0
-79 -253 0
78 79 253 0
c gate 254 -126 -132 0
-126 -254 0
-132 -254 0
126 132 254 0
c gate 255 -133 -254 0
-133 -255 0
-254 -255 0
133 254 255 0
c gate 256 253 -255 0
253 -256 0
-255 -256 0
-253 255 256 0
c gate 257 157 -253 0
157 -257 0
-253 -257 0
-157 253 257 0
c gate 258 251 -257 0
251 -258 0
-257 -258 0
-251 257 258 0
c gate 259 -248 258 0
-248 -259 0
258 -259 0
248 -258 259 0
c gate 260 -256 259 0
-256 -260 0
259 -260 0
256 -259 260 0
c gate 261 -252 -260 0
-252 -261 0
-260 -261 0
252 260 261 0
c gate 262 -166 -261 0
-166 -262 0
-261 -262 0
166 261 262 0
c gate 263 -250 -262 0
-250 -263 0
-262 -263 0
250 262 263 0
c gate 264 -249 263 0
-249 -264 0
263 -264 0
249 -263 264 0
c gate 265 -219 -264 0
-219 -265 0
-264 -265 0
219 264 265 0
c gate 266 135 161 0
135 -266 0
161 -266 0
-135 -161 266 0
c gate 267 -265 -266 0
-265 -267 0
-266 -267 0
265 266 267 0
c gate 268 -167 -267 0
-167 -268 0
-267 -268 0
167 267 268 0
c gate 269 -65 -268 0
-65 -269 0
-268 -269 0
65 268 269 0
c gate 270 -77 -269 0
-77 -270 0
-269 -270 0
77 269 270 0
c gate 271 129 -132 0
129 -271 0
-132 -271 0
-129 132 271 0
c gate 272 -253 271 0
-253 -272 0
271 -272 0
253 -271 272 0
c gate 273 -47 64 0
-47 -273 0
64 -273 0
47 -64 273 0
c gate 274 -65 -73 0
-65 -274 0
-73 -274 0
65 73 274 0
c gate 275 -273 274 0
-273 -275 0
274 -275 0
273 -274 275 0
c gate 276 -72 -275 0
-72 -276 0
-275 -276 0
72 275 276 0
c gate 277 -69 -276 0
-69 -277 0
-276 -277 0
69 276 277 0
c gate 278 -67 -70 0
-67 -278 0
-70 -278 0
67 70 278 0
c gate 279 -277 278 0
-277 -279 0
278 -279 0
277 -278 279 0
c gate 280 -66 -279 0
-66 -280 0
-279 -280 0
66 279 280 0
c gate 281 -96 -280 0
-96 -281 0
-280 -281 0
96 280 281 0
c gate 282 9 -25 0
9 -282 0
-25 -282 0
-9 25 282 0
c gate 283 -95 -282 0
-95 -283 0
-282 -283 0
95 282 283 0
c gate 284 -281 283 0
-281 -284 0
283 -284 0
281 -283 284 0
c gate 285 -9 25 0
-9 -285 0
25 -285 0
9 -25 285 0
c gate 286 -88 -285 0
-88 -286 0
-285 -286 0
88 285 286 0
c gate 287 -284 286 0
-284 -287 0
286 -287 0
284 -286 287 0
c gate 288 -86 -89 0
-86 -288 0
-89 -288 0
86 89 288 0
c gate 289 -287 288 0
-287 -289 0
288 -289 0
287 -288 289 0
c gate 290 -85 -289 0
-85 -290 0
-289 -290 0
85 289 290 0
c gate 291 -84 -251 0
-84 -291 0
-251 -291 0
84 251 291 0
c gate 292 -93 97 0
-93 -292 0
97 -292 0
93 -97 292 0
c gate 293 87 90 0
87 -293 0
90 -293 0
-87 -90 293 0
c gate 294 292 293 0
292 -294 0
293 -294 0
-292 -293 294 0
c gate 295 291 294 0
291 -295 0
294 -295 0
-291 -294 295 0
c gate 296 77 295 0
77 -296 0
295 -296 0
-77 -295 296 0
c gate 297 290 296 0
290 -297 0
296 -297 0
-290 -296 297 0
c gate 298 -272 297 0
-272 -298 0
297 -298 0
272 -297 298 0
c gate 299 290 -291 0
290 -299 0
-291 -299 0
-290 291 299 0
c gate 300 294 -299 0
294 -300 0
-299 -300 0
-294 299 300 0
c gate 301 280 -294 0
280 -301 0
-294 -301 0
-280 294 301 0
c gate 302 77 -301 0
77 -302 0
-301 -302 0
-77 301 302 0
c gate 303 -300 302 0
-300 -303 0
302 -303 0
300 -302 303 0
c gate 304 -298 -303 0
-298 -304 0
-303 -304 0
298 303 304 0
c gate 305 -270 304 0
-270 -305 0
304 -305 0
270 -304 305 0
c gate 306 -43 305 0
-43 -306 0
305 -306 0
43 -305 306 0
c gate 307 36 -306 0
36 -307 0
-306 -307 0
-36 306 307 0
c gate 308 41 -305 0
41 -308 0
-305 -308 0
-41 305 308 0
c gate 309 -36 -308 0
-36 -309 0
-308 -309 0
36 308 309 0
c gate 310 -307 -309 0
-307 -310 0
-309 -310 0
307 309 310 0
c gate 311 59 -310 0
59 -311 0
-310 -311 0
-59 310 311 0
c gate 312 -59 310 0
-59 -312 0
310 -312 0
59 -310 312 0
c gate 313 -311 -312 0
-311 -313 0
-312 -313 0
311 312 313 0
c PO
313 0
